unknown
(model
; cardinality of BoundSet is 1
(declare-sort BoundSet 0)
; rep: @uc_BoundSet_0
; cardinality of UnboundSet is 1
(declare-sort UnboundSet 0)
(declare-fun groundTerm_2 () UnboundSet)
(define-fun IsInBlueShirt ((BOUND_VARIABLE_382 BoundSet)) Bool true)
(define-fun IsWorkingOnExerciseBicycleControlPanel ((BOUND_VARIABLE_382 BoundSet)) Bool true)
(define-fun IsBald ((BOUND_VARIABLE_382 BoundSet)) Bool false)
(define-fun IsTouching ((BOUND_VARIABLE_398 BoundSet) (BOUND_VARIABLE_399 BoundSet)) Bool false)
)
sat
(model
; cardinality of BoundSet is 1
(declare-sort BoundSet 0)
; rep: @uc_BoundSet_0
; cardinality of UnboundSet is 1
(declare-sort UnboundSet 0)
(declare-fun groundTerm_4 () UnboundSet)
(define-fun IsInBlueShirt ((BOUND_VARIABLE_398 BoundSet)) Bool true)
(define-fun IsWorkingOnExerciseBicycleControlPanel ((BOUND_VARIABLE_398 BoundSet)) Bool true)
(define-fun IsBald ((BOUND_VARIABLE_398 BoundSet)) Bool true)
(define-fun IsTouching ((BOUND_VARIABLE_405 BoundSet) (BOUND_VARIABLE_406 BoundSet)) Bool true)
)
